42750 34851 
42696 35441 
42785 34680 
42573 35662 
42436 36301 
42123 37248 
42625 35555 
42365 36536 
42206 37095 
42466 35912 
42455 35960 
42440 36022 
42255 36838 
41857 37637 
41888 37545 
41981 37459 
42268 36822 
41940 37484 
42052 37362 
41694 37831 
42135 37209 
42290 36667 
42538 35807 
41304 38221 
40920 38598 
41142 38535 
41786 37751 
41428 38220 
41487 37950 
41264 38412 
41817 37659 
41459 38128 
41623 37945 
41302 38244 
41153 38419 
40918 38669 
41078 38557 
40914 38749 
40668 38790 
40972 38590 
40674 38754 
40565 38826 
40494 38884 
40330 39076 
40358 38964 
40249 39156 
40359 38891 
